NAME: R6-060518-162348.tsp
TYPE: TSP
COMMENT: Random data
DIMENSION: 6
EDGE_WEIGHT_TYPE: EXPLICIT
EDGE_WEIGHT_FORMAT: FULL_MATRIX
DISPLAY_DATA_TYPE: NO_DISPLAY
EDGE_WEIGHT_SECTION
 0 69 59 84 75 47 
39  0 22 87 16 18 
18 53  0 26 15 39 
36 74  3  0 67 27 
78 34 67 57  0 30 
72 17 80  2 76  0 
EOF